Ca2 Fe1 B1 P4                           
   1.00000000000000     
     0.0000000000000000    0.0000000000000000    4.1317766805948901
     5.7179338657960006    0.0000000000000000    0.0000000000000003
     0.0000000000000010    5.7179338657960006    0.0000000000000003
   B    Ca   Fe   P 
     1     2     1     4
Direct
  0.5000000000000000  0.5000000000000000  0.5000000000000000
  0.5007932576956649  0.5000000000000000 -0.0000000000000000
  0.4992067423043346 -0.0000000000000000  0.5000000000000000
  0.0000000000000000  0.5000000000000000  0.5000000000000000
  0.0000000000000000  0.2045705671417221  0.7954294328582778
  0.0000000000000000  0.7954294328582778  0.7954294328582778
  0.0000000000000000  0.7954294328582778  0.2045705671417221
  0.0000000000000000  0.2045705671417221  0.2045705671417221
 
  0.00000000E+00  0.00000000E+00  0.00000000E+00
  0.00000000E+00  0.00000000E+00  0.00000000E+00
  0.00000000E+00  0.00000000E+00  0.00000000E+00
  0.00000000E+00  0.00000000E+00  0.00000000E+00
  0.00000000E+00  0.00000000E+00  0.00000000E+00
  0.00000000E+00  0.00000000E+00  0.00000000E+00
  0.00000000E+00  0.00000000E+00  0.00000000E+00
  0.00000000E+00  0.00000000E+00  0.00000000E+00
