Ca2 Fe1 B1 P4
1.0
  -0.0000000000000000   -0.0000000000000000    4.1997049999999998
   5.5608899999999997   -0.0000000000000000    0.0000000000000003
   0.0000000000000009    5.5608899999999997    0.0000000000000003
B Ca Fe P
1 2 1 4
direct
   0.5000000000000000    0.5000000000000000    0.5000000000000000 B
   0.5021800000000001    0.5000000000000000    0.0000000000000000 Ca
   0.4978200000000000    1.0000000000000000    0.5000000000000000 Ca
   1.0000000000000000    0.5000000000000000    0.5000000000000000 Fe
   0.9999999999999999    0.2082750000000000    0.7917250000000000 P
   1.0000000000000000    0.7917250000000000    0.7917250000000000 P
   0.9999999999999999    0.7917250000000000    0.2082750000000000 P
   1.0000000000000000    0.2082750000000000    0.2082750000000000 P
